p tw 101 113
1 2
2 14
3 5
5 6
6 7
7 8
8 9
9 10
9 17
10 11
11 12
12 13
13 15
13 91
14 25
15 16
16 91
17 18
18 19
19 20
19 28
20 21
21 22
22 23
23 24
24 26
25 36
26 27
27 28
28 29
29 30
30 31
31 32
32 33
33 34
34 35
35 37
36 47
37 38
38 39
39 40
40 41
41 42
42 43
43 44
44 45
45 46
46 48
47 58
48 49
49 50
50 51
51 52
52 53
53 54
54 55
55 56
56 57
57 59
58 69
58 17
59 60
60 61
60 84
61 62
61 84
62 63
63 64
64 65
65 66
65 75
66 67
67 68
67 48
68 70
69 80
70 71
70 48
71 72
72 73
73 74
74 48
75 76
76 77
77 78
78 79
79 81
80 91
81 82
82 83
83 48
84 85
85 86
85 88
86 87
86 88
87 101
88 89
89 90
89 94
90 92
91 3
92 93
93 94
94 95
95 96
95 99
96 97
97 98
98 99
99 100
100 101
101 4
